(set-logic QF_LIA)
(set-info :smt-lib-version 2.0)
(declare-fun rho_1 () Int)
(declare-fun rho_2 () Int)
(declare-fun phi_1 () Bool)
(declare-fun phi_2 () Bool)
(declare-fun districtid () Int)
(declare-fun warehouseid () Int)
(declare-fun customerid () Int)
(declare-fun districtidGV () Int)
(declare-fun warehouseidGV () Int)
(declare-fun customeridGV () Int)
(assert (= rho_1 (+ districtid (+ (* warehouseid 100) (* customerid 10000)))))
(assert (= rho_2 (+ districtidGV (+ (* warehouseidGV 100) (* customeridGV 10000)))))
(assert (= phi_1 (and (>= districtid 0) (< districtid 10)(>= warehouseid 0) (< warehouseid 1)(>= customerid 0) (< customerid 3000))))
(assert (= phi_2 (and (>= districtidGV 0) (< districtidGV 10)(>= warehouseidGV 1) (< warehouseidGV 2)(>= customeridGV 0) (< customeridGV 3000))))
(assert (and (= rho_1 rho_2) (and phi_1 phi_2)))
(check-sat)
(exit)